(declare-fun a_ack!324 () (_ BitVec 64))
(declare-fun b_ack!323 () (_ BitVec 64))
(assert (not (fp.eq ((_ to_fp 11 53) a_ack!324) ((_ to_fp 11 53) #x0000000000000000))))
(assert (not (fp.eq ((_ to_fp 11 53) b_ack!323) ((_ to_fp 11 53) #x0000000000000000))))
(assert (fp.leq (fp.abs ((_ to_fp 11 53) a_ack!324))
        ((_ to_fp 11 53) #x3ff0000000000000)))
(assert (not (fp.geq (fp.abs ((_ to_fp 11 53) b_ack!323))
             ((_ to_fp 11 53) #x3ff0000000000000))))
(assert (fp.leq (fp.abs ((_ to_fp 11 53) b_ack!323))
        ((_ to_fp 11 53) #x3ff0000000000000)))
(assert (not (fp.geq (fp.abs ((_ to_fp 11 53) a_ack!324))
             ((_ to_fp 11 53) #x3ff0000000000000))))
(assert (fp.lt (fp.abs ((_ to_fp 11 53) a_ack!324))
       (fp.abs ((_ to_fp 11 53) b_ack!323))))
(assert (not (fp.gt (fp.abs ((_ to_fp 11 53) a_ack!324))
            (fp.abs ((_ to_fp 11 53) b_ack!323)))))
(assert (fp.lt (fp.abs ((_ to_fp 11 53) b_ack!323))
       ((_ to_fp 11 53) #x5feccccccccccccc)))
(assert (let ((a!1 (fp.lt (fp.abs (fp.mul roundNearestTiesToEven
                                  ((_ to_fp 11 53) a_ack!324)
                                  ((_ to_fp 11 53) b_ack!323)))
                  ((_ to_fp 11 53) #x0010000000000000))))
  (not a!1)))

(check-sat)
(exit)
